% Auto-generated by scripts/generate_dzn.py
% problem_type   = polyominoes
% instance       = polyominoes_70
% source_json    = instances_json/0_low_blowup/polyominoes_70.json
% blowup         = 0.5777777777777777
% representation = NFA

mode = 1;

size = 4;
tiles = 2;
n_expressions = 2;
Q = 93;
S = 3;
q0 = [1, 1];
F = [{16}, {16}];
d_dfa = array3d(1..2, 1..93, 1..3, [
  % k = 1
    0, 0, 0,
    0, 0, 0,
    0, 0, 0,
    0, 0, 0,
    0, 0, 0,
    0, 0, 0,
    0, 0, 0,
    0, 0, 0,
    0, 0, 0,
    0, 0, 0,
    0, 0, 0,
    0, 0, 0,
    0, 0, 0,
    0, 0, 0,
    0, 0, 0,
    0, 0, 0,
    0, 0, 0,
    0, 0, 0,
    0, 0, 0,
    0, 0, 0,
    0, 0, 0,
    0, 0, 0,
    0, 0, 0,
    0, 0, 0,
    0, 0, 0,
    0, 0, 0,
    0, 0, 0,
    0, 0, 0,
    0, 0, 0,
    0, 0, 0,
    0, 0, 0,
    0, 0, 0,
    0, 0, 0,
    0, 0, 0,
    0, 0, 0,
    0, 0, 0,
    0, 0, 0,
    0, 0, 0,
    0, 0, 0,
    0, 0, 0,
    0, 0, 0,
    0, 0, 0,
    0, 0, 0,
    0, 0, 0,
    0, 0, 0,
    0, 0, 0,
    0, 0, 0,
    0, 0, 0,
    0, 0, 0,
    0, 0, 0,
    0, 0, 0,
    0, 0, 0,
    0, 0, 0,
    0, 0, 0,
    0, 0, 0,
    0, 0, 0,
    0, 0, 0,
    0, 0, 0,
    0, 0, 0,
    0, 0, 0,
    0, 0, 0,
    0, 0, 0,
    0, 0, 0,
    0, 0, 0,
    0, 0, 0,
    0, 0, 0,
    0, 0, 0,
    0, 0, 0,
    0, 0, 0,
    0, 0, 0,
    0, 0, 0,
    0, 0, 0,
    0, 0, 0,
    0, 0, 0,
    0, 0, 0,
    0, 0, 0,
    0, 0, 0,
    0, 0, 0,
    0, 0, 0,
    0, 0, 0,
    0, 0, 0,
    0, 0, 0,
    0, 0, 0,
    0, 0, 0,
    0, 0, 0,
    0, 0, 0,
    0, 0, 0,
    0, 0, 0,
    0, 0, 0,
    0, 0, 0,
    0, 0, 0,
    0, 0, 0,
    0, 0, 0,

  % k = 2
    0, 0, 0,
    0, 0, 0,
    0, 0, 0,
    0, 0, 0,
    0, 0, 0,
    0, 0, 0,
    0, 0, 0,
    0, 0, 0,
    0, 0, 0,
    0, 0, 0,
    0, 0, 0,
    0, 0, 0,
    0, 0, 0,
    0, 0, 0,
    0, 0, 0,
    0, 0, 0,
    0, 0, 0,
    0, 0, 0,
    0, 0, 0,
    0, 0, 0,
    0, 0, 0,
    0, 0, 0,
    0, 0, 0,
    0, 0, 0,
    0, 0, 0,
    0, 0, 0,
    0, 0, 0,
    0, 0, 0,
    0, 0, 0,
    0, 0, 0,
    0, 0, 0,
    0, 0, 0,
    0, 0, 0,
    0, 0, 0,
    0, 0, 0,
    0, 0, 0,
    0, 0, 0,
    0, 0, 0,
    0, 0, 0,
    0, 0, 0,
    0, 0, 0,
    0, 0, 0,
    0, 0, 0,
    0, 0, 0,
    0, 0, 0,
    0, 0, 0,
    0, 0, 0,
    0, 0, 0,
    0, 0, 0,
    0, 0, 0,
    0, 0, 0,
    0, 0, 0,
    0, 0, 0,
    0, 0, 0,
    0, 0, 0,
    0, 0, 0,
    0, 0, 0,
    0, 0, 0,
    0, 0, 0,
    0, 0, 0,
    0, 0, 0,
    0, 0, 0,
    0, 0, 0,
    0, 0, 0,
    0, 0, 0,
    0, 0, 0,
    0, 0, 0,
    0, 0, 0,
    0, 0, 0,
    0, 0, 0,
    0, 0, 0,
    0, 0, 0,
    0, 0, 0,
    0, 0, 0,
    0, 0, 0,
    0, 0, 0,
    0, 0, 0,
    0, 0, 0,
    0, 0, 0,
    0, 0, 0,
    0, 0, 0,
    0, 0, 0,
    0, 0, 0,
    0, 0, 0,
    0, 0, 0,
    0, 0, 0,
    0, 0, 0,
    0, 0, 0,
    0, 0, 0,
    0, 0, 0,
    0, 0, 0,
    0, 0, 0,
    0, 0, 0
]);
d_nfa = array3d(1..2, 1..93, 1..3, [
  % k = 1
    {3, 18, 33, 45, 58, 65, 79, 87}, {2, 17, 32, 44, 57, 64, 78, 86}, {2, 17, 32, 44, 57, 64, 78, 86},
    {3}, {2}, {2},
    {4}, {}, {},
    {}, {5}, {5},
    {}, {6}, {6},
    {}, {7}, {7},
    {8}, {}, {},
    {9}, {}, {},
    {10}, {}, {},
    {}, {11}, {11},
    {}, {12}, {12},
    {13}, {}, {},
    {14}, {}, {},
    {15}, {}, {},
    {16}, {}, {},
    {}, {16}, {16},
    {18}, {17}, {17},
    {19}, {}, {},
    {20}, {}, {},
    {}, {21}, {21},
    {}, {22}, {22},
    {23}, {}, {},
    {24}, {}, {},
    {25}, {}, {},
    {}, {26}, {26},
    {}, {27}, {27},
    {28}, {}, {},
    {29}, {}, {},
    {}, {30}, {30},
    {}, {31}, {31},
    {}, {15}, {15},
    {33}, {32}, {32},
    {34}, {}, {},
    {35}, {}, {},
    {36}, {}, {},
    {}, {37}, {37},
    {}, {38}, {38},
    {39}, {}, {},
    {40}, {}, {},
    {41}, {}, {},
    {}, {42}, {42},
    {}, {43}, {43},
    {}, {14}, {14},
    {45}, {44}, {44},
    {}, {46}, {46},
    {}, {47}, {47},
    {}, {48}, {48},
    {49}, {}, {},
    {50}, {}, {},
    {}, {51}, {51},
    {}, {52}, {52},
    {53}, {}, {},
    {54}, {}, {},
    {55}, {}, {},
    {}, {56}, {56},
    {}, {13}, {13},
    {58}, {57}, {57},
    {59}, {}, {},
    {}, {60}, {60},
    {}, {61}, {61},
    {62}, {}, {},
    {63}, {}, {},
    {11}, {}, {},
    {65}, {64}, {64},
    {66}, {}, {},
    {67}, {}, {},
    {}, {68}, {68},
    {}, {69}, {69},
    {70}, {}, {},
    {71}, {}, {},
    {72}, {}, {},
    {}, {73}, {73},
    {}, {74}, {74},
    {}, {75}, {75},
    {76}, {}, {},
    {77}, {}, {},
    {}, {29}, {29},
    {79}, {78}, {78},
    {80}, {}, {},
    {81}, {}, {},
    {82}, {}, {},
    {}, {83}, {83},
    {84}, {}, {},
    {85}, {}, {},
    {42}, {}, {},
    {87}, {86}, {86},
    {}, {88}, {88},
    {}, {89}, {89},
    {}, {90}, {90},
    {}, {91}, {91},
    {92}, {}, {},
    {93}, {}, {},
    {}, {50}, {50},

  % k = 2
    {2, 17, 32, 43, 53, 60, 73, 79}, {3, 18, 33, 44, 54, 61, 74, 80}, {2, 17, 32, 43, 53, 60, 73, 79},
    {2}, {3}, {2},
    {}, {4}, {},
    {}, {5}, {},
    {}, {6}, {},
    {7}, {}, {7},
    {8}, {}, {8},
    {9}, {}, {9},
    {}, {10}, {},
    {}, {11}, {},
    {12}, {}, {12},
    {13}, {}, {13},
    {14}, {}, {14},
    {15}, {}, {15},
    {}, {16}, {},
    {16}, {}, {16},
    {17}, {18}, {17},
    {19}, {}, {19},
    {20}, {}, {20},
    {21}, {}, {21},
    {22}, {}, {22},
    {}, {23}, {},
    {24}, {}, {24},
    {25}, {}, {25},
    {26}, {}, {26},
    {}, {27}, {},
    {}, {28}, {},
    {29}, {}, {29},
    {30}, {}, {30},
    {}, {31}, {},
    {}, {15}, {},
    {32}, {33}, {32},
    {34}, {}, {34},
    {35}, {}, {35},
    {36}, {}, {36},
    {37}, {}, {37},
    {}, {38}, {},
    {}, {39}, {},
    {40}, {}, {40},
    {41}, {}, {41},
    {42}, {}, {42},
    {}, {30}, {},
    {43}, {44}, {43},
    {}, {45}, {},
    {}, {46}, {},
    {47}, {}, {47},
    {48}, {}, {48},
    {}, {49}, {},
    {}, {50}, {},
    {51}, {}, {51},
    {52}, {}, {52},
    {10}, {}, {10},
    {53}, {54}, {53},
    {}, {55}, {},
    {}, {56}, {},
    {}, {57}, {},
    {58}, {}, {58},
    {}, {59}, {},
    {}, {12}, {},
    {60}, {61}, {60},
    {62}, {}, {62},
    {63}, {}, {63},
    {64}, {}, {64},
    {65}, {}, {65},
    {}, {66}, {},
    {67}, {}, {67},
    {68}, {}, {68},
    {69}, {}, {69},
    {70}, {}, {70},
    {}, {71}, {},
    {}, {72}, {},
    {28}, {}, {28},
    {73}, {74}, {73},
    {75}, {}, {75},
    {76}, {}, {76},
    {77}, {}, {77},
    {}, {78}, {},
    {}, {41}, {},
    {79}, {80}, {79},
    {}, {81}, {},
    {}, {82}, {},
    {83}, {}, {83},
    {84}, {}, {84},
    {85}, {}, {85},
    {}, {86}, {},
    {}, {87}, {},
    {50}, {}, {50},
    {}, {}, {},
    {}, {}, {},
    {}, {}, {},
    {}, {}, {},
    {}, {}, {},
    {}, {}, {}
]);
